* #variable= 36 #constraint= 104
+1 ~x1_A +1 ~x0_B >= 1;
+1 ~x1_B +1 ~x0_C >= 1;
+1 ~x1_B +1 ~x0_A >= 1;
+1 ~x1_C +1 ~x0_D >= 1;
+1 ~x1_C +1 ~x0_B >= 1;
+1 ~x1_D +1 ~x0_E >= 1;
+1 ~x1_D +1 ~x0_C >= 1;
+1 ~x1_E +1 ~x0_F >= 1;
+1 ~x1_E +1 ~x0_D >= 1;
+1 ~x1_F +1 ~x0_E >= 1;
+1 ~x2_A +1 ~x1_B >= 1;
+1 ~x2_B +1 ~x1_C >= 1;
+1 ~x2_B +1 ~x1_A >= 1;
+1 ~x2_C +1 ~x1_D >= 1;
+1 ~x2_C +1 ~x1_B >= 1;
+1 ~x2_D +1 ~x1_E >= 1;
+1 ~x2_D +1 ~x1_C >= 1;
+1 ~x2_E +1 ~x1_F >= 1;
+1 ~x2_E +1 ~x1_D >= 1;
+1 ~x2_F +1 ~x1_E >= 1;
+1 ~x3_A +1 ~x1_B >= 1;
+1 ~x3_B +1 ~x1_C >= 1;
+1 ~x3_B +1 ~x1_A >= 1;
+1 ~x3_C +1 ~x1_D >= 1;
+1 ~x3_C +1 ~x1_B >= 1;
+1 ~x3_D +1 ~x1_E >= 1;
+1 ~x3_D +1 ~x1_C >= 1;
+1 ~x3_E +1 ~x1_F >= 1;
+1 ~x3_E +1 ~x1_D >= 1;
+1 ~x3_F +1 ~x1_E >= 1;
+1 ~x4_A +1 ~x0_B >= 1;
+1 ~x4_B +1 ~x0_C >= 1;
+1 ~x4_B +1 ~x0_A >= 1;
+1 ~x4_C +1 ~x0_D >= 1;
+1 ~x4_C +1 ~x0_B >= 1;
+1 ~x4_D +1 ~x0_E >= 1;
+1 ~x4_D +1 ~x0_C >= 1;
+1 ~x4_E +1 ~x0_F >= 1;
+1 ~x4_E +1 ~x0_D >= 1;
+1 ~x4_F +1 ~x0_E >= 1;
+1 ~x4_A +1 ~x1_B >= 1;
+1 ~x4_B +1 ~x1_C >= 1;
+1 ~x4_B +1 ~x1_A >= 1;
+1 ~x4_C +1 ~x1_D >= 1;
+1 ~x4_C +1 ~x1_B >= 1;
+1 ~x4_D +1 ~x1_E >= 1;
+1 ~x4_D +1 ~x1_C >= 1;
+1 ~x4_E +1 ~x1_F >= 1;
+1 ~x4_E +1 ~x1_D >= 1;
+1 ~x4_F +1 ~x1_E >= 1;
+1 ~x4_A +1 ~x2_B >= 1;
+1 ~x4_B +1 ~x2_C >= 1;
+1 ~x4_B +1 ~x2_A >= 1;
+1 ~x4_C +1 ~x2_D >= 1;
+1 ~x4_C +1 ~x2_B >= 1;
+1 ~x4_D +1 ~x2_E >= 1;
+1 ~x4_D +1 ~x2_C >= 1;
+1 ~x4_E +1 ~x2_F >= 1;
+1 ~x4_E +1 ~x2_D >= 1;
+1 ~x4_F +1 ~x2_E >= 1;
+1 ~x5_A +1 ~x1_B >= 1;
+1 ~x5_B +1 ~x1_C >= 1;
+1 ~x5_B +1 ~x1_A >= 1;
+1 ~x5_C +1 ~x1_D >= 1;
+1 ~x5_C +1 ~x1_B >= 1;
+1 ~x5_D +1 ~x1_E >= 1;
+1 ~x5_D +1 ~x1_C >= 1;
+1 ~x5_E +1 ~x1_F >= 1;
+1 ~x5_E +1 ~x1_D >= 1;
+1 ~x5_F +1 ~x1_E >= 1;
+1 ~x5_A +1 ~x4_B >= 1;
+1 ~x5_B +1 ~x4_C >= 1;
+1 ~x5_B +1 ~x4_A >= 1;
+1 ~x5_C +1 ~x4_D >= 1;
+1 ~x5_C +1 ~x4_B >= 1;
+1 ~x5_D +1 ~x4_E >= 1;
+1 ~x5_D +1 ~x4_C >= 1;
+1 ~x5_E +1 ~x4_F >= 1;
+1 ~x5_E +1 ~x4_D >= 1;
+1 ~x5_F +1 ~x4_E >= 1;
+1 ~x0_A +1 ~x1_A +1 ~x2_A +1 ~x3_A +1 ~x4_A +1 ~x5_A >= 5;
+1 x0_A +1 x1_A +1 x2_A +1 x3_A +1 x4_A +1 x5_A >= 1 ;
+1 ~x0_B +1 ~x1_B +1 ~x2_B +1 ~x3_B +1 ~x4_B +1 ~x5_B >= 5;
+1 x0_B +1 x1_B +1 x2_B +1 x3_B +1 x4_B +1 x5_B >= 1 ;
+1 ~x0_C +1 ~x1_C +1 ~x2_C +1 ~x3_C +1 ~x4_C +1 ~x5_C >= 5;
+1 x0_C +1 x1_C +1 x2_C +1 x3_C +1 x4_C +1 x5_C >= 1 ;
+1 ~x0_D +1 ~x1_D +1 ~x2_D +1 ~x3_D +1 ~x4_D +1 ~x5_D >= 5;
+1 x0_D +1 x1_D +1 x2_D +1 x3_D +1 x4_D +1 x5_D >= 1 ;
+1 ~x0_E +1 ~x1_E +1 ~x2_E +1 ~x3_E +1 ~x4_E +1 ~x5_E >= 5;
+1 x0_E +1 x1_E +1 x2_E +1 x3_E +1 x4_E +1 x5_E >= 1 ;
+1 ~x0_F +1 ~x1_F +1 ~x2_F +1 ~x3_F +1 ~x4_F +1 ~x5_F >= 5;
+1 x0_F +1 x1_F +1 x2_F +1 x3_F +1 x4_F +1 x5_F >= 1 ;
+1 ~x0_A +1 ~x0_B +1 ~x0_C +1 ~x0_D +1 ~x0_E +1 ~x0_F >= 5;
+1 x0_A +1 x0_B +1 x0_C +1 x0_D +1 x0_E +1 x0_F >= 1 ;
+1 ~x1_A +1 ~x1_B +1 ~x1_C +1 ~x1_D +1 ~x1_E +1 ~x1_F >= 5;
+1 x1_A +1 x1_B +1 x1_C +1 x1_D +1 x1_E +1 x1_F >= 1 ;
+1 ~x2_A +1 ~x2_B +1 ~x2_C +1 ~x2_D +1 ~x2_E +1 ~x2_F >= 5;
+1 x2_A +1 x2_B +1 x2_C +1 x2_D +1 x2_E +1 x2_F >= 1 ;
+1 ~x3_A +1 ~x3_B +1 ~x3_C +1 ~x3_D +1 ~x3_E +1 ~x3_F >= 5;
+1 x3_A +1 x3_B +1 x3_C +1 x3_D +1 x3_E +1 x3_F >= 1 ;
+1 ~x4_A +1 ~x4_B +1 ~x4_C +1 ~x4_D +1 ~x4_E +1 ~x4_F >= 5;
+1 x4_A +1 x4_B +1 x4_C +1 x4_D +1 x4_E +1 x4_F >= 1 ;
+1 ~x5_A +1 ~x5_B +1 ~x5_C +1 ~x5_D +1 ~x5_E +1 ~x5_F >= 5;
+1 x5_A +1 x5_B +1 x5_C +1 x5_D +1 x5_E +1 x5_F >= 1 ;
